Element Number	Equivalent (von-Mises) Stress (Pa)
1	5,1845e+006
2	5,2777e+006
3	6,3939e+006
4	5,5544e+006
5	5,3294e+006
6	5,7118e+006
7	7,0817e+006
8	7,2586e+006
9	6,2254e+006
10	7,407e+006
11	6,4559e+006
12	5,5695e+006
13	5,4746e+006
14	4,6561e+006
15	1,3379e+007
16	1,0245e+007
17	1,17e+007
18	8,9228e+006
19	9,0081e+006
20	6,1628e+006
21	5,0627e+006
22	1,226e+007
23	1,0328e+007
24	8,4206e+006
25	6,7749e+006
26	5,9215e+006
27	7,8119e+006
28	9,2873e+006
29	1,009e+007
30	9,2586e+006
31	1,0446e+007
32	1,0916e+007
33	7,6661e+006
34	8,5321e+006
35	8,6683e+006
36	1,0037e+007
37	1,0889e+007
38	1,4719e+007
39	1,0739e+007
40	1,0432e+007
41	7,5759e+006
42	1,0951e+007
43	1,0914e+007
44	1,0186e+007
45	1,1971e+007
46	1,1291e+007
47	1,4618e+007
48	9,8703e+006
49	1,0434e+007
50	8,1531e+006
51	1,677e+007
52	9,9138e+006
53	1,2449e+007
54	9,8808e+006
55	9,2863e+006
56	3,9584e+006
57	3,5288e+006
58	6,8042e+006
59	7,5557e+006
60	2,6115e+006
61	6,7459e+006
62	1,1018e+007
63	1,9002e+007
64	7,1832e+006
65	7,4823e+006
66	1,006e+007
67	1,3717e+007
68	7,7254e+006
69	3,8295e+006
70	3,6931e+006
71	4,8714e+006
72	8,0869e+006
73	8,2647e+006
74	1,0089e+007
75	1,0602e+007
76	1,0346e+007
77	1,028e+007
78	1,0159e+007
79	7,1139e+006
80	9,1578e+006
81	7,5292e+006
82	7,7921e+006
83	9,103e+006
84	8,1591e+006
85	7,4806e+006
86	9,6222e+006
87	6,231e+006
88	7,9902e+006
89	7,3799e+006
90	7,0115e+006
91	6,8518e+006
92	4,3998e+006
93	5,7116e+006
94	8,0311e+006
95	6,84e+006
96	1,0861e+007
97	8,5627e+006
98	7,1208e+006
99	8,1775e+006
100	9,4303e+006
101	1,4686e+007
102	1,2185e+007
103	1,0774e+007
104	1,2257e+007
105	6,1692e+006
106	4,7269e+006
107	8,6977e+006
108	7,3958e+006
109	4,428e+006
110	8,1621e+006
111	8,8093e+006
112	5,1948e+006
113	9,3453e+006
114	9,0915e+006
115	9,7965e+006
116	1,97e+007
117	5,9788e+006
118	1,3521e+007
119	6,6534e+006
120	9,6399e+006
121	5,1415e+006
122	1,1228e+007
123	1,0549e+007
124	1,2293e+007
125	1,2579e+007
126	1,4165e+007
127	9,6224e+006
128	8,4554e+006
129	1,0671e+007
130	1,0898e+007
131	1,0184e+007
132	9,8364e+006
133	7,3813e+006
134	3,2423e+007
135	1,4449e+007
136	9,169e+006
137	4,1879e+007
138	7,953e+006
139	8,6965e+006
140	3,564e+007
141	8,2902e+006
142	1,034e+007
143	3,0321e+007
144	6,7442e+006
145	7,6492e+006
146	7,0042e+006
147	7,0252e+006
148	5,537e+006
149	5,1271e+006
150	8,1639e+006
151	5,859e+006
152	4,3025e+006
153	6,7962e+006
154	4,1534e+006
155	5,6824e+006
156	1,7634e+007
157	1,4109e+007
158	9,6888e+006
159	8,2305e+006
160	5,1589e+006
161	1,3221e+007
162	5,5503e+006
163	8,8182e+006
164	1,0301e+007
165	8,7138e+006
166	8,6069e+006
167	7,0881e+006
168	7,7363e+006
169	5,7727e+006
170	7,2196e+006
171	9,0193e+006
172	9,0182e+006
173	9,2086e+006
174	7,5543e+006
175	6,162e+006
176	9,4304e+006
177	1,1562e+007
178	1,0812e+007
179	7,3191e+006
180	4,1954e+006
181	5,0921e+006
182	4,1366e+006
183	5,4549e+006
184	4,6236e+006
185	1,2254e+007
186	1,25e+007
187	4,8966e+006
188	4,8999e+006
189	9,1837e+006
190	1,1366e+007
191	6,8306e+006
192	4,8601e+006
193	1,0049e+007
194	7,8338e+006
195	1,1182e+007
196	8,1659e+006
197	9,4112e+006
198	1,189e+007
199	7,4466e+006
200	6,6041e+006
201	6,4045e+006
202	8,3605e+006
203	1,0381e+007
204	6,8965e+006
205	9,369e+006
206	1,0416e+007
207	1,1607e+007
208	1,2848e+007
209	7,5044e+006
210	7,9595e+006
211	5,3775e+006
212	1,1125e+007
213	8,5951e+006
214	4,3157e+006
215	1,3951e+007
216	3,4888e+007
217	1,6436e+007
218	6,7199e+006
219	1,1489e+007
220	1,0223e+007
221	1,1281e+007
222	5,9776e+006
223	1,7917e+007
224	6,9112e+006
225	9,5232e+006
226	4,851e+006
227	6,9052e+006
228	1,24e+007
229	2,4866e+007
230	1,0594e+007
231	1,1117e+007
232	7,7641e+006
233	8,532e+006
234	1,1645e+007
235	8,2375e+006
236	1,294e+007
237	4,906e+006
238	1,3875e+007
239	1,5363e+007
240	1,1059e+007
241	7,7268e+006
242	8,9294e+006
243	8,2657e+006
244	7,0897e+006
245	1,3787e+007
246	8,6006e+006
247	4,6967e+006
248	7,4053e+006
249	4,767e+006
250	1,4544e+007
251	7,419e+006
252	1,1994e+007
253	1,9545e+007
254	6,6699e+006
255	1,1083e+007
256	1,4335e+007
257	6,6749e+006
258	3,373e+007
259	1,1224e+007
260	9,3551e+006
261	9,9706e+006
262	1,2118e+007
263	7,5271e+006
264	9,6666e+006
265	1,3778e+007
266	4,1589e+006
267	1,2401e+007
268	5,5796e+006
269	5,8984e+006
270	4,6834e+006
271	1,1184e+007
272	9,3977e+006
273	1,006e+007
274	4,7672e+006
275	7,6082e+006
276	4,9937e+006
277	5,5647e+006
278	1,3925e+007
279	4,8859e+006
280	1,1406e+007
281	1,1054e+007
282	9,1605e+006
283	7,6165e+006
284	1,0618e+007
285	1,1409e+007
286	4,1803e+006
287	6,1182e+006
288	1,3806e+007
289	5,8865e+006
290	9,068e+006
291	1,4406e+007
292	7,7888e+006
293	1,1719e+007
294	3,0705e+007
295	1,2487e+007
296	8,7102e+006
297	9,9145e+006
298	5,5222e+006
299	1,4523e+007
300	8,0126e+006
301	1,1806e+007
302	1,169e+007
303	4,9689e+006
304	1,329e+007
305	2,4438e+007
306	1,3433e+007
307	4,1923e+006
308	1,0726e+007
309	3,8383e+007
310	3,581e+007
311	4,4164e+006
312	8,089e+006
313	4,5213e+006
314	1,0044e+007
315	5,8553e+006
316	8,9784e+006
317	1,1328e+007
318	1,0741e+007
319	1,6362e+007
320	1,2228e+007
321	1,2414e+007
322	7,6331e+006
323	1,3434e+007
324	8,2706e+006
325	3,0234e+007
326	8,2737e+006
327	6,5689e+006
328	1,176e+007
329	8,3531e+006
330	6,49e+006
331	8,1409e+006
332	1,0382e+007
333	9,5951e+006
334	6,2829e+006
335	7,9142e+006
336	7,3597e+006
337	1,0362e+007
338	8,7123e+006
339	8,0108e+006
340	8,8709e+006
341	6,5153e+006
342	7,7207e+006
343	5,4127e+006
344	5,3505e+006
345	1,1273e+007
346	9,613e+006
347	1,1945e+007
348	7,0673e+006
349	1,262e+007
350	1,5215e+007
351	5,0407e+006
352	2,6045e+006
353	5,2851e+006
354	1,1625e+007
355	6,2744e+006
356	9,1844e+006
357	6,1013e+006
358	7,9251e+006
359	8,6218e+006
360	7,7066e+006
361	6,8753e+006
362	7,0955e+006
363	6,2437e+006
364	8,8473e+006
365	4,5577e+006
366	8,5979e+006
367	7,5124e+006
368	9,0708e+006
369	1,3018e+007
370	1,0655e+007
371	7,6352e+006
372	1,0891e+007
373	7,4653e+006
374	1,1491e+007
375	1,0128e+007
376	9,5548e+006
377	9,2748e+006
378	1,4067e+007
379	1,0265e+007
380	1,1713e+007
381	6,7815e+006
382	6,2378e+006
383	5,3496e+006
384	1,0937e+007
385	9,5601e+006
386	1,1701e+007
387	1,4017e+007
388	1,359e+007
389	2,0909e+007
390	1,2416e+007
391	9,5374e+006
392	7,2424e+006
393	5,1319e+006
394	9,5635e+006
395	9,9024e+006
396	1,3269e+007
397	9,7791e+006
398	1,2665e+007
399	9,8032e+006
400	7,1742e+006
401	1,5984e+007
402	5,4031e+006
403	1,5067e+006
404	1,2905e+007
405	1,1689e+007
406	1,1387e+007
407	1,2595e+007
408	1,29e+007
409	1,1578e+007
410	8,9093e+006
411	1,1909e+007
412	1,0022e+007
413	1,2901e+007
414	1,1761e+007
415	6,3159e+006
416	1,185e+007
417	1,1798e+007
418	1,8383e+007
419	4,9058e+006
420	8,9184e+006
421	1,3335e+007
422	1,2218e+007
423	1,7483e+007
424	1,247e+007
425	1,715e+007
426	6,4765e+006
427	7,1749e+006
428	4,1538e+006
429	3,7052e+006
430	7,5426e+006
431	3,2547e+006
432	9,2497e+006
433	6,3859e+006
434	5,4882e+006
435	6,0386e+006
436	7,2438e+006
437	7,8948e+006
438	7,1681e+006
439	6,1223e+006
440	5,4678e+006
441	1,2597e+007
442	1,3934e+007
443	6,3542e+006
444	8,9288e+006
445	1,0147e+007
446	1,6081e+007
447	1,5345e+007
448	9,0254e+006
449	5,943e+006
450	4,5931e+006
451	1,3226e+007
452	1,4721e+007
453	5,9385e+006
454	3,2717e+006
455	2,9443e+006
456	1,1283e+006
457	8,4234e+006
458	8,6318e+006
459	2,1818e+007
460	2,4768e+007
461	1,3754e+007
462	2,2175e+007
463	7,3804e+006
464	3,2117e+007
465	1,126e+007
466	3,1641e+007
467	8,3546e+006
468	1,1731e+007
469	8,7067e+006
470	5,4605e+006
471	7,8287e+006
472	8,4246e+006
473	7,7698e+006
474	1,8394e+007
475	1,7555e+007
476	9,2927e+006
477	8,7321e+006
478	7,9642e+006
479	5,8496e+006
480	3,5573e+006
481	2,1076e+006
482	9,9995e+006
483	6,6572e+006
484	3,3492e+006
485	4,8974e+006
486	4,8125e+006
487	1,3735e+007
488	1,6574e+007
489	4,2946e+006
490	8,0735e+006
491	4,7748e+006
492	4,6946e+006
493	1,4717e+007
494	1,3125e+007
495	2,9234e+006
496	5,0817e+006
497	1,6756e+007
498	1,494e+007
499	4,0573e+006
500	4,7898e+006
501	5,1554e+006
502	7,0616e+006
503	3,3299e+006
504	6,0483e+006
505	4,1547e+006
506	2,9557e+006
507	2,7315e+006
508	2,6374e+006
509	2,6559e+006
510	8,4421e+006
511	7,5333e+006
512	2,2974e+006
513	1,6047e+006
514	7,3022e+006
515	4,9573e+006
516	3,7431e+006
517	4,0368e+006
518	6,2548e+006
519	5,7332e+006
520	1,0406e+007
521	8,5084e+006
522	1,047e+007
523	5,9153e+006
524	1,2186e+007
525	7,954e+006
526	7,8694e+006
527	7,6481e+006
528	4,2736e+006
529	1,4675e+007
530	1,4426e+007
531	4,1816e+006
532	5,63e+006
533	8,1624e+006
534	4,6585e+006
535	6,4488e+006
536	6,5484e+006
537	3,1028e+006
538	3,366e+006
539	3,7186e+006
540	4,7157e+006
541	7,4094e+006
542	4,2029e+006
543	6,2307e+006
544	5,1277e+006
545	4,7485e+006
546	5,3964e+006
547	5,6739e+006
548	7,0962e+006
549	4,6143e+006
550	3,7436e+006
551	1,6056e+007
552	4,183e+006
553	3,4903e+006
554	3,8516e+006
555	3,4634e+006
556	5,3127e+006
557	2,6698e+006
558	2,7198e+006
559	7,6086e+006
560	4,7944e+006
561	2,0387e+007
562	2,5399e+007
563	3,0382e+007
564	1,5631e+007
565	1,4312e+007
566	1,3123e+007
567	3,0192e+007
568	1,2565e+007
569	1,2622e+007
570	1,7163e+007
571	1,3747e+007
572	3,133e+007
573	7,4922e+006
574	1,3236e+007
575	3,0587e+007
576	2,3934e+007
577	1,0809e+007
578	1,2602e+007
579	1,1434e+007
580	6,0748e+006
581	3,7364e+006
582	7,3306e+006
583	6,9648e+006
584	7,3978e+006
585	3,3963e+006
586	2,828e+006
587	4,9548e+006
588	6,6314e+006
589	5,4691e+006
590	5,9658e+006
591	6,838e+006
592	3,9344e+006
593	3,5128e+006
594	4,203e+006
595	3,384e+006
596	5,3034e+006
597	1,7236e+007
598	4,2481e+006
599	3,1771e+006
600	9,3971e+006
601	3,4323e+006
602	4,313e+006
603	3,9522e+006
604	6,9886e+006
605	9,1377e+006
606	1,0485e+007
607	8,5909e+006
608	9,2867e+006
609	7,6984e+006
610	7,7717e+006
611	8,6767e+006
612	5,9609e+006
613	6,6747e+006
614	6,5516e+006
615	7,885e+006
616	9,9509e+006
617	6,2456e+006
618	1,0875e+007
619	5,3812e+006
620	7,7322e+006
621	4,1677e+006
622	2,9952e+006
623	6,0161e+006
624	5,5823e+006
625	6,7316e+006
626	6,0243e+006
627	6,3756e+006
628	2,5138e+006
629	5,0293e+006
630	9,855e+006
631	7,1435e+006
632	2,6957e+006
633	5,4035e+006
634	4,9034e+006
635	2,5372e+006
636	6,4547e+006
637	6,6762e+006
638	8,0175e+006
639	7,723e+006
640	7,8315e+006
641	6,1557e+006
642	6,8527e+006
643	8,3687e+006
644	8,5502e+006
645	7,0551e+006
646	9,0004e+006
647	1,5361e+006
648	3,2838e+006
649	4,4749e+006
650	7,662e+006
651	1,0171e+007
652	1,2942e+007
653	5,7482e+006
654	9,6264e+006
655	7,7391e+006
656	9,395e+006
657	5,0232e+006
658	3,3212e+006
659	8,7757e+006
660	6,6629e+006
661	6,5031e+006
662	7,9944e+006
663	6,2881e+006
664	5,3068e+006
665	2,834e+006
666	9,4969e+006
667	8,4924e+006
668	3,993e+006
669	3,424e+006
670	4,2479e+006
671	4,7979e+006
672	6,7969e+006
673	2,9515e+006
674	7,8297e+006
675	7,2651e+006
676	4,5699e+006
677	8,3192e+006
678	6,0417e+006
679	6,8801e+006
680	3,6921e+006
681	6,0816e+006
682	5,1205e+006
683	5,8045e+006
684	8,6211e+006
685	6,7597e+006
686	3,932e+006
687	6,8737e+006
688	7,3807e+006
689	1,1949e+007
690	5,8635e+006
691	4,945e+006
692	1,3808e+007
693	5,4915e+006
694	3,6789e+006
695	4,3278e+006
696	2,8084e+006
697	5,3566e+006
698	4,6716e+006
699	1,5292e+007
700	3,8465e+006
701	1,2214e+007
702	5,475e+006
703	2,9424e+006
704	4,2077e+006
705	1,3213e+007
706	1,3237e+007
707	1,0057e+007
708	6,5533e+006
709	8,5545e+006
710	9,0138e+006
711	8,0083e+006
712	5,6181e+006
713	7,7847e+006
714	7,0999e+006
715	4,7742e+006
716	7,7762e+006
717	6,7904e+006
718	7,6142e+006
719	5,0284e+006
720	1,2166e+007
721	9,207e+006
722	5,0419e+006
723	7,6828e+006
724	6,6221e+006
725	7,5658e+006
726	1,4265e+007
727	1,2906e+007
728	8,2319e+006
729	2,5062e+006
730	6,929e+006
731	8,158e+006
732	8,3996e+006
733	7,3435e+006
734	6,2552e+006
735	5,5298e+006
736	4,9547e+006
737	9,0797e+006
738	1,2287e+007
739	7,228e+006
740	1,4646e+007
741	9,2315e+006
742	8,0485e+006
743	8,0216e+006
744	8,9224e+006
745	7,185e+006
746	8,3547e+006
747	8,4349e+006
748	8,378e+006
749	1,1423e+007
750	3,798e+006
751	6,4747e+006
752	1,6222e+007
753	1,6187e+007
754	4,2353e+006
755	4,3138e+006
756	3,3138e+006
757	5,8345e+006
758	6,6645e+006
759	1,6823e+007
760	2,1026e+007
761	1,1679e+007
762	7,7288e+006
763	8,6795e+006
764	1,3726e+007
765	1,1116e+007
766	1,0829e+007
767	7,7529e+006
768	8,324e+006
769	1,4715e+007
770	1,3003e+007
771	1,0013e+007
772	1,2924e+007
773	3,3958e+006
774	8,0449e+006
775	8,8908e+006
776	7,0464e+006
777	5,2382e+006
778	1,2286e+006
779	1,7127e+006
780	9,354e+006
781	5,5198e+006
782	1,0008e+007
783	6,7694e+006
784	7,0286e+006
785	5,9835e+006
786	7,9619e+006
787	1,6897e+007
788	1,6128e+007
789	1,0592e+007
790	1,3962e+007
791	4,8231e+006
792	1,5217e+007
793	8,0582e+006
794	8,8398e+006
795	6,2373e+006
796	4,5608e+006
797	5,3938e+006
798	3,7962e+006
799	9,3283e+006
800	7,4111e+006
801	2,8822e+006
802	4,7727e+006
803	7,0167e+006
804	1,4341e+007
805	1,6493e+007
806	6,6599e+006
807	6,3655e+006
808	6,1515e+006
809	6,2142e+006
810	5,9198e+006
811	5,5483e+006
812	9,2802e+006
813	4,6166e+006
814	1,3083e+007
815	5,2811e+006
816	4,0367e+006
817	7,8373e+006
818	4,0888e+006
819	5,9269e+006
820	1,1712e+006
821	1,3525e+007
822	6,2364e+006
823	7,5642e+006
824	5,7072e+006
825	1,1115e+007
826	4,5908e+006
827	9,2046e+006
828	7,5501e+006
829	4,9129e+006
830	4,4544e+006
831	9,3969e+006
832	6,842e+006
833	7,4241e+006
834	5,3884e+006
835	3,7895e+006
836	2,1514e+006
837	4,786e+006
838	6,5886e+006
839	1,3202e+007
840	8,2437e+006
841	1,1109e+007
842	2,9294e+006
843	7,6196e+006
844	5,8866e+006
845	9,0354e+006
846	6,1428e+006
847	1,8614e+007
848	1,1358e+007
849	1,3226e+007
850	1,4622e+007
851	1,4843e+007
852	1,0503e+007
853	1,1947e+007
854	9,1574e+006
855	9,2496e+006
856	8,5526e+006
857	1,339e+007
858	9,6222e+006
859	1,4978e+007
860	8,8949e+006
861	1,0088e+007
862	9,5813e+006
863	8,9757e+006
864	8,5574e+006
865	9,0314e+006
866	9,7969e+006
867	9,5219e+006
868	9,7189e+006
869	9,4866e+006
870	1,2136e+007
871	7,7547e+006
872	1,1736e+007
873	1,1002e+007
874	1,3678e+007
875	6,6164e+006
876	1,0044e+007
877	1,1319e+007
878	8,8463e+006
879	8,5826e+006
880	3,3893e+007
881	2,2832e+007
882	3,0546e+007
883	2,3705e+007
884	2,1764e+007
885	6,3878e+006
886	6,4459e+006
887	3,6165e+006
888	7,4365e+006
889	6,7668e+006
890	5,8557e+006
891	4,4707e+006
892	5,5016e+006
893	1,0006e+007
894	5,0854e+006
895	5,9888e+006
896	5,189e+006
897	5,0711e+006
898	1,3134e+007
899	7,2554e+006
900	1,0054e+007
901	1,2949e+007
902	8,9796e+006
903	8,2452e+006
904	6,8405e+006
905	5,0287e+006
906	4,5653e+006
907	7,0082e+006
908	7,6825e+006
909	6,511e+006
910	5,0472e+006
911	8,4923e+006
912	5,0459e+006
913	7,6623e+006
914	7,9322e+006
915	3,4019e+006
916	6,1298e+006
917	4,5386e+006
918	8,551e+006
919	1,4086e+007
920	2,5862e+006
921	2,9401e+006
922	4,6033e+006
923	4,8126e+006
924	4,175e+006
925	4,8132e+006
926	5,3394e+006
927	7,524e+006
928	8,1731e+006
929	8,4118e+006
930	6,3684e+006
931	1,2969e+007
932	2,4858e+006
933	9,4998e+005
934	2,1556e+006
935	4,4778e+006
936	7,8369e+006
937	4,9178e+006
938	2,0825e+006
939	4,7683e+006
940	5,2844e+006
941	3,857e+006
942	3,9415e+006
943	1,0998e+007
944	1,6715e+007
945	2,4459e+007
946	3,1462e+006
947	4,814e+006
948	3,446e+006
949	7,5686e+006
950	7,3703e+006
951	4,3375e+006
952	3,6077e+006
953	1,1623e+007
954	8,7973e+006
955	7,5946e+006
956	8,696e+006
957	4,1792e+006
958	2,2239e+006
959	2,2752e+007
960	1,5399e+007
961	7,6704e+006
962	9,9192e+006
963	7,0148e+006
964	2,134e+007
965	1,7284e+007
966	3,2142e+006
967	2,0626e+006
968	6,8953e+006
969	4,1932e+006
970	7,4589e+006
971	5,9547e+006
972	7,2969e+006
973	1,0511e+007
974	1,1715e+007
975	5,7294e+006
976	4,289e+006
977	1,0621e+007
978	7,5914e+006
979	1,4725e+007
980	1,5759e+007
981	3,933e+006
982	2,7788e+006
983	5,517e+006
984	7,0004e+006
985	5,8919e+006
986	4,3641e+006
987	5,7612e+006
988	4,7165e+006
989	1,1637e+006
990	2,2632e+006
991	7,0249e+006
992	6,3692e+006
993	4,692e+006
994	1,2095e+007
995	2,0107e+006
996	2,7136e+006
997	5,6095e+006
998	4,3514e+006
999	4,5521e+006
1000	7,0936e+006
1001	2,9995e+006
1002	3,9728e+006
1003	2,4871e+006
1004	5,1543e+006
1005	7,1546e+006
1006	6,1832e+006
1007	5,8974e+006
1008	3,2875e+006
1009	2,377e+006
1010	5,1531e+006
1011	8,6457e+006
1012	6,3312e+006
1013	3,5729e+007
1014	3,639e+006
1015	5,4143e+006
1016	3,7218e+006
1017	6,4646e+006
1018	8,5319e+006
1019	1,3357e+007
1020	6,1589e+006
1021	8,1127e+006
1022	3,7116e+006
1023	3,2481e+006
1024	4,1843e+006
1025	6,3255e+006
1026	6,5556e+006
1027	1,3453e+007
1028	6,0549e+006
1029	5,9982e+006
1030	6,772e+006
1031	5,7245e+006
1032	1,6323e+007
1033	1,1785e+007
1034	6,5064e+006
1035	7,8394e+006
1036	1,4823e+007
1037	1,0384e+007
1038	9,5846e+006
1039	5,3022e+006
1040	6,869e+006
1041	5,5155e+006
1042	4,0498e+006
1043	4,3388e+006
1044	6,224e+006
1045	5,2583e+006
1046	1,0697e+007
1047	1,333e+007
1048	4,0136e+006
1049	5,3969e+006
1050	6,2273e+006
1051	5,9301e+006
1052	5,1819e+006
1053	1,1114e+007
1054	1,4412e+007
1055	5,657e+006
1056	7,1015e+006
1057	8,5595e+006
1058	5,0283e+006
1059	5,408e+006
1060	3,5969e+006
1061	1,1968e+007
1062	6,5087e+006
1063	1,1443e+007
1064	1,0681e+007
1065	8,8271e+006
1066	7,8688e+006
1067	6,9299e+006
1068	6,3618e+006
1069	4,3285e+006
1070	9,7646e+006
1071	1,4226e+007
1072	7,1165e+006
1073	8,725e+006
1074	3,1122e+007
1075	3,2512e+007
1076	1,8631e+007
1077	1,3228e+007
1078	5,6993e+006
1079	4,9521e+006
1080	5,2158e+006
1081	6,6034e+006
1082	4,113e+006
1083	5,0614e+006
1084	9,6723e+006
1085	1,0522e+007
1086	1,1235e+007
1087	1,0325e+007
1088	1,4041e+007
1089	1,0413e+007
1090	9,4188e+006
1091	6,9488e+006
1092	9,0059e+006
1093	9,6241e+006
1094	1,0968e+007
1095	5,4833e+006
1096	1,0055e+007
1097	6,9003e+006
1098	1,4716e+007
1099	5,7448e+006
1100	1,5846e+007
1101	1,2871e+007
1102	1,1986e+007
1103	9,1536e+006
1104	5,5922e+006
1105	9,7509e+006
1106	1,272e+007
1107	1,3475e+007
1108	7,3966e+006
1109	1,2445e+007
1110	1,2748e+007
1111	8,179e+006
1112	9,7756e+006
1113	1,4545e+007
1114	7,8283e+006
1115	5,1573e+006
